
Gurobi 6.5.2 (linux64) logging started Sun Sep 18 18:40:57 2016


Gurobi 6.5.2 (linux64) logging started Sun Sep 18 18:40:57 2016

Optimize a model with 41 rows, 153 columns and 319 nonzeros
Coefficient statistics:
  Matrix range    [1e+00, 2e+00]
  Objective range [1e+00, 1e+02]
  Bounds range    [1e+00, 1e+00]
  RHS range       [1e+00, 1e+00]
Found heuristic solution: objective 886
Presolve removed 16 rows and 10 columns
Presolve time: 0.00s
Presolved: 25 rows, 143 columns, 291 nonzeros
Variable types: 0 continuous, 143 integer (143 binary)

Root relaxation: objective 3.375000e+02, 32 iterations, 0.00 seconds

    Nodes    |    Current Node    |     Objective Bounds      |     Work
 Expl Unexpl |  Obj  Depth IntInf | Incumbent    BestBd   Gap | It/Node Time

     0     0  337.50000    0    6  886.00000  337.50000  61.9%     -    0s
     0     0  352.00000    0   14  886.00000  352.00000  60.3%     -    0s
     0     0  375.66667    0   16  886.00000  375.66667  57.6%     -    0s
H    0     0                     405.0000000  375.66667  7.24%     -    0s
     0     0  376.50000    0   20  405.00000  376.50000  7.04%     -    0s
     0     0  376.50000    0   14  405.00000  376.50000  7.04%     -    0s
     0     0  377.00000    0   24  405.00000  377.00000  6.91%     -    0s
H    0     0                     402.0000000  377.00000  6.22%     -    0s
     0     0  398.66667    0   12  402.00000  398.66667  0.83%     -    0s
H    0     0                     401.0000000  398.66667  0.58%     -    0s
     0     0     cutoff    0       401.00000  400.00040  0.25%     -    0s

Cutting planes:
  Gomory: 6
  Cover: 8
  MIR: 1
  Zero half: 4

Explored 0 nodes (119 simplex iterations) in 0.02 seconds
Thread count was 8 (of 8 available processors)

Optimal solution found (tolerance 1.00e-04)
Best objective 4.010000000000e+02, best bound 4.010000000000e+02, gap 0.0%
